(set-logic QF_SLIA)
(declare-fun var0 () String)
(assert (str.in_re var0 (re.++ ((_ re.loop 4 725) (re.++ (re.union (str.to_re "}z") (re.union (str.to_re "z") (re.union (str.to_re "$") (str.to_re "4;")))) (re.++ (re.union (str.to_re "}") (re.union (str.to_re "v") (re.union (str.to_re "H7?") (str.to_re ",/")))) (re.++ (re.union (str.to_re "{$") (re.union (str.to_re "mtl") (re.union (str.to_re "Uk") (str.to_re "O")))) (re.union (str.to_re "S?") (re.union (str.to_re ":H") (re.union (str.to_re ";f") (str.to_re "yc|")))))))) (re.++ ((_ re.loop 19 379) (re.++ (re.union (str.to_re "FB") (re.union (str.to_re "Q") (re.union (str.to_re "Y") (str.to_re "BE")))) (re.++ (re.union (str.to_re "Dt%") (re.union (str.to_re "%") (re.union (str.to_re "]9") (str.to_re "O?}")))) (re.++ (re.union (str.to_re "gZf") (re.union (str.to_re "5[") (re.union (str.to_re "-") (str.to_re "Y")))) (re.union (str.to_re "5qu") (re.union (str.to_re "5I|") (re.union (str.to_re "x0j") (str.to_re "4-")))))))) (re.++ ((_ re.loop 15 948) (re.++ (re.union (str.to_re "*&s") (re.union (str.to_re "3X") (re.union (str.to_re ";wU") (str.to_re "@iZ")))) (re.++ (re.union (str.to_re "/k") (re.union (str.to_re "D}") (re.union (str.to_re "H-$") (str.to_re "4+")))) (re.++ (re.union (str.to_re "S'~") (re.union (str.to_re ")L)") (re.union (str.to_re "a") (str.to_re "i")))) (re.union (str.to_re "yYN") (re.union (str.to_re "0}<") (re.union (str.to_re ":!") (str.to_re "8@")))))))) ((_ re.loop 0 769) (re.++ (re.union (str.to_re ".*w") (re.union (str.to_re "T") (re.union (str.to_re "6") (str.to_re "K")))) (re.++ (re.union (str.to_re "+v") (re.union (str.to_re "rcv") (re.union (str.to_re "r9") (str.to_re ",Z#")))) (re.++ (re.union (str.to_re "uT") (re.union (str.to_re "]l") (re.union (str.to_re "KJ") (str.to_re "V")))) (re.union (str.to_re "h") (re.union (str.to_re "3j") (re.union (str.to_re "hc") (str.to_re "OLe")))))))))))))
(assert (not (str.in_re var0 (re.++ ((_ re.loop 14 340) (re.++ (re.union (str.to_re "KZ#") (re.union (str.to_re "+8") (re.union (str.to_re "Y(&") (str.to_re ":Y8")))) (re.++ (re.union (str.to_re "/f") (re.union (str.to_re "*W") (re.union (str.to_re "}:") (str.to_re ")P:")))) (re.++ (re.union (str.to_re "5/K") (re.union (str.to_re "2") (re.union (str.to_re "r/") (str.to_re "E")))) (re.union (str.to_re "c/") (re.union (str.to_re "O") (re.union (str.to_re "b") (str.to_re "D(")))))))) (re.++ ((_ re.loop 5 265) (re.++ (re.union (str.to_re "i") (re.union (str.to_re "m") (re.union (str.to_re "SN") (str.to_re "_")))) (re.++ (re.union (str.to_re "q") (re.union (str.to_re "Bs5") (re.union (str.to_re "D") (str.to_re "y=")))) (re.++ (re.union (str.to_re "W") (re.union (str.to_re "'I") (re.union (str.to_re "!") (str.to_re "IKZ")))) (re.union (str.to_re "\\mz") (re.union (str.to_re "{C") (re.union (str.to_re "Q") (str.to_re "w")))))))) (re.++ ((_ re.loop 13 935) (re.++ (re.union (str.to_re ":WJ") (re.union (str.to_re "W7") (re.union (str.to_re "&[") (str.to_re "-QB")))) (re.++ (re.union (str.to_re "OT/") (re.union (str.to_re "\\") (re.union (str.to_re "8G") (str.to_re "#V")))) (re.++ (re.union (str.to_re "a") (re.union (str.to_re "t'") (re.union (str.to_re "_") (str.to_re ">v!")))) (re.union (str.to_re "-") (re.union (str.to_re "$qd") (re.union (str.to_re "+Tv") (str.to_re "He")))))))) ((_ re.loop 14 491) (re.++ (re.union (str.to_re "P") (re.union (str.to_re "EM") (re.union (str.to_re "UD") (str.to_re "Y:")))) (re.++ (re.union (str.to_re "-Q") (re.union (str.to_re "(") (re.union (str.to_re "Oq") (str.to_re "HY")))) (re.++ (re.union (str.to_re "p9") (re.union (str.to_re "f") (re.union (str.to_re "3u") (str.to_re "~")))) (re.union (str.to_re "b") (re.union (str.to_re "=jk") (re.union (str.to_re "(C") (str.to_re "KW"))))))))))))))
(assert (not (str.in_re var0 (re.++ (re.* re.allchar) (re.++ (re.union (str.to_re "<") (re.union (str.to_re ">") (re.union (str.to_re "'") (re.union (str.to_re "\u0022") (str.to_re "&"))))) (re.* re.allchar))))))
(assert (<= 50 (str.len var0)))
(check-sat)
(get-model)
